k = 34;
b = 17;
AtomicConstraints =  [|
1, 2|
	1, 16|
	1, 17|
	10, 2|
	10, 3|
	10, 16|
	10, 17|
	11, 2|
	11, 3|
	11, 4|
	11, 17|
	12, 2|
	12, 3|
	12, 4|
	12, 5|
	13, 3|
	13, 4|
	13, 5|
	13, 6|
	14, 4|
	14, 5|
	14, 6|
	14, 7|
	15, 5|
	15, 6|
	15, 7|
	15, 8|
	30, 22|
	30, 23|
	30, 19|
	30, 20|
	30, 21|
	31, 22|
	31, 23|
	31, 24|
	31, 20|
	31, 21|
	32, 22|
	32, 23|
	32, 24|
	32, 25|
	32, 21|
	18, 33|
	18, 34|
	18, 19|
	27, 33|
	27, 34|
	27, 19|
	27, 20|
	28, 33|
	28, 34|
	28, 19|
	28, 20|
	28, 21|
	29, 22|
	29, 34|
	29, 19|
	29, 20|
	29, 21|];
DisjunctiveConstraints =  [|2, 17, 2, 3|
	3, 2, 3, 4|
	4, 3, 4, 5|
	5, 4, 5, 6|
	6, 5, 6, 7|
	7, 6, 7, 8|
	8, 7, 8, 9|
	10, 1, 10, 11|
	11, 10, 11, 12|
	12, 11, 12, 13|
	13, 12, 13, 14|
	14, 13, 14, 15|
	17, 16, 17, 2|
	30, 29, 30, 31|
	22, 21, 22, 23|
	31, 30, 31, 32|
	23, 22, 23, 24|
	24, 23, 24, 25|
	25, 24, 25, 26|
	34, 33, 34, 19|
	27, 18, 27, 28|
	19, 34, 19, 20|
	28, 27, 28, 29|
	20, 19, 20, 21|
	29, 28, 29, 30|
	21, 20, 21, 22|];
SoftAtomicConstraints =  [|
17, 2|
2, 3|
3, 4|
4, 5|
5, 6|
6, 7|
7, 8|
8, 9|
1, 10|
10, 11|
11, 12|
12, 13|
13, 14|
14, 15|
16, 17|
34, 19|
19, 20|
20, 21|
21, 22|
22, 23|
23, 24|
24, 25|
25, 26|
18, 27|
27, 28|
28, 29|
29, 30|
30, 31|
31, 32|
33, 34|];
DirectSuccessors =  [];
